NAME          
ROWS
 N  OBJ
 L  c1
 L  c2
 L  c3
COLUMNS
    MARKER    'MARKER'                 'INTORG'
    x[1]      c1        966
    x[1]      c2        189
    x[1]      c3        960
    x[1]      OBJ       -893
    x[2]      c1        663
    x[2]      c2        978
    x[2]      c3        742
    x[2]      OBJ       -987
    x[3]      c1        728
    x[3]      c2        54
    x[3]      c3        759
    x[3]      OBJ       -249
    x[4]      c1        614
    x[4]      c2        492
    x[4]      c3        462
    x[4]      OBJ       -965
    x[5]      c1        238
    x[5]      c2        911
    x[5]      c3        300
    x[5]      OBJ       -793
    x[6]      c1        287
    x[6]      c2        710
    x[6]      c3        440
    x[6]      OBJ       -705
    x[7]      c1        779
    x[7]      c2        260
    x[7]      c3        650
    x[7]      OBJ       -472
    x[8]      c1        961
    x[8]      c2        930
    x[8]      c3        263
    x[8]      OBJ       -158
    x[9]      c1        156
    x[9]      c2        287
    x[9]      c3        880
    x[9]      OBJ       -507
    x[10]     c1        960
    x[10]     c2        39
    x[10]     c3        413
    x[10]     OBJ       -25
    x[11]     c1        941
    x[11]     c2        250
    x[11]     c3        760
    x[11]     OBJ       -646
    x[12]     c1        373
    x[12]     c2        252
    x[12]     c3        263
    x[12]     OBJ       -71
    x[13]     c1        885
    x[13]     c2        854
    x[13]     c3        50
    x[13]     OBJ       -141
    x[14]     c1        246
    x[14]     c2        363
    x[14]     c3        22
    x[14]     OBJ       -520
    x[15]     c1        952
    x[15]     c2        905
    x[15]     c3        121
    x[15]     OBJ       -306
    x[16]     c1        370
    x[16]     c2        480
    x[16]     c3        164
    x[16]     OBJ       -337
    x[17]     c1        647
    x[17]     c2        489
    x[17]     c3        753
    x[17]     OBJ       -909
    x[18]     c1        992
    x[18]     c2        843
    x[18]     c3        741
    x[18]     OBJ       -507
    x[19]     c1        689
    x[19]     c2        114
    x[19]     c3        691
    x[19]     OBJ       -635
    x[20]     c1        333
    x[20]     c2        431
    x[20]     c3        953
    x[20]     OBJ       -478
    x[21]     c1        900
    x[21]     c2        395
    x[21]     c3        25
    x[21]     OBJ       -848
    x[22]     c1        680
    x[22]     c2        298
    x[22]     c3        212
    x[22]     OBJ       -400
    x[23]     c1        355
    x[23]     c2        741
    x[23]     c3        800
    x[23]     OBJ       -550
    x[24]     c1        855
    x[24]     c2        608
    x[24]     c3        642
    x[24]     OBJ       -814
    x[25]     c1        186
    x[25]     c2        208
    x[25]     c3        92
    x[25]     OBJ       -339
    x[26]     c1        845
    x[26]     c2        665
    x[26]     c3        660
    x[26]     OBJ       -151
    x[27]     c1        937
    x[27]     c2        694
    x[27]     c3        514
    x[27]     OBJ       -920
    x[28]     c1        186
    x[28]     c2        953
    x[28]     c3        119
    x[28]     OBJ       -862
    x[29]     c1        158
    x[29]     c2        562
    x[29]     c3        635
    x[29]     OBJ       -458
    x[30]     c1        150
    x[30]     c2        631
    x[30]     c3        28
    x[30]     OBJ       -809
RHS
    rhs       c1        9016
    rhs       c2        7793
    rhs       c3        7057
RANGES
BOUNDS
 LO bounds    x[1]      0
 PL bounds    x[1]
 LO bounds    x[2]      0
 PL bounds    x[2]
 LO bounds    x[3]      0
 PL bounds    x[3]
 LO bounds    x[4]      0
 PL bounds    x[4]
 LO bounds    x[5]      0
 PL bounds    x[5]
 LO bounds    x[6]      0
 PL bounds    x[6]
 LO bounds    x[7]      0
 PL bounds    x[7]
 LO bounds    x[8]      0
 PL bounds    x[8]
 LO bounds    x[9]      0
 PL bounds    x[9]
 LO bounds    x[10]     0
 PL bounds    x[10]
 LO bounds    x[11]     0
 PL bounds    x[11]
 LO bounds    x[12]     0
 PL bounds    x[12]
 LO bounds    x[13]     0
 PL bounds    x[13]
 LO bounds    x[14]     0
 PL bounds    x[14]
 LO bounds    x[15]     0
 PL bounds    x[15]
 LO bounds    x[16]     0
 PL bounds    x[16]
 LO bounds    x[17]     0
 PL bounds    x[17]
 LO bounds    x[18]     0
 PL bounds    x[18]
 LO bounds    x[19]     0
 PL bounds    x[19]
 LO bounds    x[20]     0
 PL bounds    x[20]
 LO bounds    x[21]     0
 PL bounds    x[21]
 LO bounds    x[22]     0
 PL bounds    x[22]
 LO bounds    x[23]     0
 PL bounds    x[23]
 LO bounds    x[24]     0
 PL bounds    x[24]
 LO bounds    x[25]     0
 PL bounds    x[25]
 LO bounds    x[26]     0
 PL bounds    x[26]
 LO bounds    x[27]     0
 PL bounds    x[27]
 LO bounds    x[28]     0
 PL bounds    x[28]
 LO bounds    x[29]     0
 PL bounds    x[29]
 LO bounds    x[30]     0
 PL bounds    x[30]
ENDATA
